NAME: tsp45_2
COMMENT: 45-tsp problem (Padberg/Rinaldi)
TYPE: TSP
DIMENSION: 45
EDGE_WEIGHT_TYPE : EUC_2D
NODE_COORD_SECTION
1 18 18
2 34 34
3 26 30
4 23 8
5 27 15
6 1 27
7 9 18
8 11 20
9 21 12
10 4 20
11 14 40
12 18 1
13 26 34
14 38 4
15 8 31
16 36 16
17 37 22
18 39 38
19 10 3
20 6 27
21 6 5
22 27 19
23 4 11
24 35 4
25 14 17
26 21 12
27 20 19
28 11 4
29 35 4
30 6 8
31 22 27
32 13 31
33 5 35
34 30 1
35 36 5
36 24 26
37 6 22
38 11 30
39 6 19
40 31 24
41 18 33
42 27 20
43 5 12
44 39 22
45 5 31
